certificates/rado_a9_c238_N29.cnf
c Rad2 upper bound instance: x1 + 9*x2 - x3 = 238, interval [1,29]
p cnf 29 186
1 6 27 0
-1 -6 -27 0
1 15 28 0
-1 -15 -28 0
1 24 29 0
-1 -24 -29 0
2 7 27 0
-2 -7 -27 0
2 16 28 0
-2 -16 -28 0
2 25 29 0
-2 -25 -29 0
3 8 27 0
-3 -8 -27 0
3 17 28 0
-3 -17 -28 0
3 26 29 0
-3 -26 -29 0
4 9 27 0
-4 -9 -27 0
4 18 28 0
-4 -18 -28 0
4 27 29 0
-4 -27 -29 0
1 5 26 0
-1 -5 -26 0
5 10 27 0
-5 -10 -27 0
5 19 28 0
-5 -19 -28 0
5 28 29 0
-5 -28 -29 0
2 6 26 0
-2 -6 -26 0
6 11 27 0
-6 -11 -27 0
6 20 28 0
-6 -20 -28 0
6 29 0
-6 -29 0
3 7 26 0
-3 -7 -26 0
7 12 27 0
-7 -12 -27 0
7 21 28 0
-7 -21 -28 0
4 8 26 0
-4 -8 -26 0
8 13 27 0
-8 -13 -27 0
8 22 28 0
-8 -22 -28 0
5 9 26 0
-5 -9 -26 0
9 14 27 0
-9 -14 -27 0
9 23 28 0
-9 -23 -28 0
6 10 26 0
-6 -10 -26 0
10 15 27 0
-10 -15 -27 0
10 24 28 0
-10 -24 -28 0
7 11 26 0
-7 -11 -26 0
11 16 27 0
-11 -16 -27 0
11 25 28 0
-11 -25 -28 0
8 12 26 0
-8 -12 -26 0
12 17 27 0
-12 -17 -27 0
12 26 28 0
-12 -26 -28 0
9 13 26 0
-9 -13 -26 0
13 18 27 0
-13 -18 -27 0
13 27 28 0
-13 -27 -28 0
1 14 25 0
-1 -14 -25 0
10 14 26 0
-10 -14 -26 0
14 19 27 0
-14 -19 -27 0
14 28 0
-14 -28 0
2 15 25 0
-2 -15 -25 0
11 15 26 0
-11 -15 -26 0
15 20 27 0
-15 -20 -27 0
15 28 29 0
-15 -28 -29 0
3 16 25 0
-3 -16 -25 0
12 16 26 0
-12 -16 -26 0
16 21 27 0
-16 -21 -27 0
4 17 25 0
-4 -17 -25 0
13 17 26 0
-13 -17 -26 0
17 22 27 0
-17 -22 -27 0
5 18 25 0
-5 -18 -25 0
14 18 26 0
-14 -18 -26 0
18 23 27 0
-18 -23 -27 0
6 19 25 0
-6 -19 -25 0
15 19 26 0
-15 -19 -26 0
19 24 27 0
-19 -24 -27 0
7 20 25 0
-7 -20 -25 0
16 20 26 0
-16 -20 -26 0
20 25 27 0
-20 -25 -27 0
8 21 25 0
-8 -21 -25 0
17 21 26 0
-17 -21 -26 0
21 26 27 0
-21 -26 -27 0
9 22 25 0
-9 -22 -25 0
18 22 26 0
-18 -22 -26 0
22 27 0
-22 -27 0
1 23 24 0
-1 -23 -24 0
10 23 25 0
-10 -23 -25 0
19 23 26 0
-19 -23 -26 0
23 27 28 0
-23 -27 -28 0
2 24 0
-2 -24 0
11 24 25 0
-11 -24 -25 0
20 24 26 0
-20 -24 -26 0
24 27 29 0
-24 -27 -29 0
3 24 25 0
-3 -24 -25 0
12 25 0
-12 -25 0
21 25 26 0
-21 -25 -26 0
4 24 26 0
-4 -24 -26 0
13 25 26 0
-13 -25 -26 0
22 26 0
-22 -26 0
5 24 27 0
-5 -24 -27 0
14 25 27 0
-14 -25 -27 0
23 26 27 0
-23 -26 -27 0
6 24 28 0
-6 -24 -28 0
15 25 28 0
-15 -25 -28 0
24 26 28 0
-24 -26 -28 0
7 24 29 0
-7 -24 -29 0
16 25 29 0
-16 -25 -29 0
25 26 29 0
-25 -26 -29 0
