certificates/rado_a9_c238_N29.drat
-27 -29 0
-29 0
6 0
27 0
-22 0
-1 0
-11 0
26 0
24 0
-21 0
-23 0
-2 0
-10 0
-28 0
-5 0
-19 0
-20 0
-4 0
25 0
16 0
0
